<number of tasks>
28

<cycle time>
138

<task times>
1 70
2 59
3 33
4 6
5 1
6 27
7 17
8 62
9 31
10 53
11 21
12 19
13 108
14 52
15 5
16 8
17 97
18 8
19 47
20 67
21 17
22 8
23 3
24 21
25 107
26 3
27 2
28 72

<precedence relations>
1,2
1,3
1,4
1,5
1,8
1,19
1,21
1,22
1,23
1,24
1,26
2,6
2,17
3,28
4,28
5,28
6,7
7,18
8,9
9,10
10,11
10,12
11,15
12,13
13,14
13,16
14,28
15,28
16,28
17,28
18,28
19,20
20,28
21,28
22,28
23,28
24,25
25,28
26,27
27,28

<setup times forward>
1,2:14
1,3:6
1,5:13
1,19:14
1,21:5
1,22:5
1,23:8
1,24:6
1,26:6
2,3:20
2,4:14
2,5:27
2,6:20
2,8:14
2,10:20
2,11:15
2,12:22
2,13:15
2,14:27
2,15:27
2,16:27
2,17:22
2,20:11
2,21:9
2,22:9
2,23:22
2,24:20
2,25:9
2,26:20
2,27:22
3,2:20
3,4:6
3,5:7
3,7:2
3,8:6
3,9:20
3,11:5
3,12:2
3,13:5
3,14:7
3,15:7
3,16:7
3,17:2
3,18:5
3,19:20
3,20:9
3,21:11
3,22:11
3,23:2
3,25:11
3,27:2
3,28:7
4,2:14
4,3:6
4,5:13
4,6:6
4,7:8
4,9:14
4,10:6
4,11:1
4,12:8
4,13:1
4,14:13
4,15:13
4,16:13
4,17:8
4,18:1
4,19:14
4,20:3
4,21:5
4,22:5
4,23:8
4,24:6
4,25:5
4,26:6
4,27:8
4,28:13
5,2:27
5,3:7
5,4:13
5,6:7
5,7:5
5,8:13
5,9:27
5,10:7
5,11:12
5,12:5
5,13:12
5,17:5
5,18:12
5,19:27
5,20:16
5,21:18
5,22:18
5,23:5
5,24:7
5,25:18
5,26:7
5,27:5
6,4:6
6,5:7
6,7:2
6,8:6
6,9:20
6,11:5
6,12:2
6,13:5
6,14:7
6,15:7
6,16:7
6,17:2
6,19:20
6,20:9
6,21:11
6,22:11
6,23:2
6,25:11
6,27:2
7,3:2
7,4:8
7,5:5
7,8:8
7,9:22
7,10:2
7,11:7
7,13:7
7,14:5
7,15:5
7,16:5
7,18:7
7,19:22
7,20:11
7,21:13
7,22:13
7,24:2
7,25:13
7,26:2
8,2:14
8,3:6
8,5:13
8,6:6
8,7:8
8,9:14
8,17:8
8,18:1
8,19:14
8,20:3
8,21:5
8,22:5
8,23:8
8,24:6
8,25:5
8,26:6
8,27:8
9,3:20
9,4:14
9,5:27
9,6:20
9,7:22
9,10:20
9,17:22
9,18:15
9,20:11
9,21:9
9,22:9
9,23:22
9,24:20
9,25:9
9,26:20
9,27:22
10,2:20
10,4:6
10,5:7
10,7:2
10,11:5
10,12:2
10,17:2
10,18:5
10,19:20
10,20:9
10,21:11
10,22:11
10,23:2
10,25:11
10,27:2
11,2:15
11,3:5
11,4:1
11,5:12
11,6:5
11,7:7
11,12:7
11,14:12
11,15:12
11,16:12
11,17:7
11,19:15
11,20:4
11,21:6
11,22:6
11,23:7
11,24:5
11,25:6
11,26:5
11,27:7
12,2:22
12,3:2
12,4:8
12,5:5
12,6:2
12,11:7
12,13:7
12,15:5
12,18:7
12,19:22
12,20:11
12,21:13
12,22:13
12,24:2
12,25:13
12,26:2
13,2:15
13,3:5
13,4:1
13,5:12
13,6:5
13,7:7
13,14:12
13,15:12
13,16:12
13,17:7
13,19:15
13,20:4
13,21:6
13,22:6
13,23:7
13,24:5
13,25:6
13,26:5
13,27:7
14,2:27
14,3:7
14,4:13
14,6:7
14,7:5
14,11:12
14,17:5
14,18:12
14,19:27
14,20:16
14,21:18
14,22:18
14,23:5
14,24:7
14,25:18
14,26:7
14,27:5
15,2:27
15,3:7
15,4:13
15,6:7
15,7:5
15,12:5
15,13:12
15,17:5
15,18:12
15,19:27
15,20:16
15,21:18
15,22:18
15,23:5
15,24:7
15,25:18
15,26:7
15,27:5
16,2:27
16,3:7
16,4:13
16,6:7
16,7:5
16,11:12
16,17:5
16,18:12
16,19:27
16,20:16
16,21:18
16,22:18
16,23:5
16,24:7
16,25:18
16,26:7
16,27:5
17,3:2
17,4:8
17,5:5
17,6:2
17,8:8
17,9:22
17,10:2
17,11:7
17,13:7
17,14:5
17,15:5
17,16:5
17,18:7
17,19:22
17,20:11
17,21:13
17,22:13
17,24:2
17,25:13
17,26:2
17,28:5
18,3:5
18,4:1
18,5:12
18,8:1
18,9:15
18,10:5
18,12:7
18,14:12
18,15:12
18,16:12
18,17:7
18,19:15
18,20:4
18,21:6
18,22:6
18,23:7
18,24:5
18,25:6
18,26:5
18,27:7
18,28:12
19,3:20
19,4:14
19,5:27
19,6:20
19,7:22
19,8:14
19,10:20
19,11:15
19,12:22
19,13:15
19,14:27
19,15:27
19,16:27
19,17:22
19,18:15
19,20:11
19,21:9
19,22:9
19,23:22
19,24:20
19,25:9
19,26:20
19,27:22
20,2:11
20,3:9
20,4:3
20,5:16
20,6:9
20,7:11
20,8:3
20,9:11
20,10:9
20,11:4
20,12:11
20,13:4
20,14:16
20,15:16
20,16:16
20,17:11
20,18:4
20,21:2
20,22:2
20,23:11
20,24:9
20,25:2
20,26:9
20,27:11
20,28:16
21,2:9
21,3:11
21,4:5
21,5:18
21,6:11
21,7:13
21,8:5
21,9:9
21,10:11
21,11:6
21,12:13
21,13:6
21,14:18
21,15:18
21,16:18
21,17:13
21,18:6
21,19:9
21,20:2
21,23:13
21,24:11
21,26:11
21,27:13
21,28:18
22,2:9
22,3:11
22,4:5
22,5:18
22,6:11
22,7:13
22,8:5
22,9:9
22,10:11
22,11:6
22,12:13
22,13:6
22,14:18
22,15:18
22,16:18
22,17:13
22,18:6
22,19:9
22,20:2
22,23:13
22,24:11
22,26:11
22,27:13
22,28:18
23,2:22
23,3:2
23,4:8
23,5:5
23,6:2
23,8:8
23,9:22
23,10:2
23,11:7
23,13:7
23,14:5
23,15:5
23,16:5
23,18:7
23,19:22
23,20:11
23,21:13
23,22:13
23,24:2
23,25:13
23,26:2
23,28:5
24,2:20
24,4:6
24,5:7
24,7:2
24,8:6
24,9:20
24,11:5
24,12:2
24,13:5
24,14:7
24,15:7
24,16:7
24,17:2
24,18:5
24,19:20
24,20:9
24,21:11
24,22:11
24,23:2
24,25:11
24,27:2
25,2:9
25,3:11
25,4:5
25,5:18
25,6:11
25,7:13
25,8:5
25,9:9
25,10:11
25,11:6
25,12:13
25,13:6
25,14:18
25,15:18
25,16:18
25,17:13
25,18:6
25,19:9
25,20:2
25,23:13
25,26:11
25,27:13
25,28:18
26,2:20
26,4:6
26,5:7
26,7:2
26,8:6
26,9:20
26,11:5
26,12:2
26,13:5
26,14:7
26,15:7
26,16:7
26,17:2
26,18:5
26,19:20
26,20:9
26,21:11
26,22:11
26,23:2
26,25:11
26,27:2
27,2:22
27,3:2
27,4:8
27,5:5
27,6:2
27,8:8
27,9:22
27,10:2
27,11:7
27,13:7
27,14:5
27,15:5
27,16:5
27,18:7
27,19:22
27,20:11
27,21:13
27,22:13
27,24:2
27,25:13
27,28:5

<setup times backward>
2,1:14
2,3:20
2,4:14
2,5:27
2,8:14
2,10:20
2,11:15
2,12:22
2,13:15
2,14:27
2,15:27
2,16:27
2,20:11
2,21:9
2,22:9
2,23:22
2,24:20
2,25:9
2,26:20
2,27:22
3,5:7
3,7:2
3,12:2
3,14:7
3,15:7
3,16:7
3,17:2
3,23:2
3,27:2
4,3:6
4,5:13
4,6:6
4,7:8
4,10:6
4,11:1
4,12:8
4,13:1
4,14:13
4,15:13
4,16:13
4,17:8
4,18:1
4,23:8
4,24:6
4,26:6
4,27:8
6,5:7
6,12:2
6,14:7
6,15:7
6,16:7
6,17:2
6,23:2
6,27:2
7,5:5
7,14:5
7,15:5
7,16:5
8,3:6
8,5:13
8,6:6
8,7:8
8,17:8
8,18:1
8,23:8
8,24:6
8,26:6
8,27:8
9,1:14
9,3:20
9,4:14
9,5:27
9,6:20
9,7:22
9,8:14
9,17:22
9,18:15
9,20:11
9,21:9
9,22:9
9,23:22
9,24:20
9,25:9
9,26:20
9,27:22
10,5:7
10,7:2
10,17:2
10,23:2
10,27:2
11,3:5
11,5:12
11,6:5
11,7:7
11,10:5
11,12:7
11,14:12
11,16:12
11,17:7
11,23:7
11,24:5
11,26:5
11,27:7
12,5:5
12,15:5
13,3:5
13,5:12
13,6:5
13,7:7
13,10:5
13,12:7
13,15:12
13,17:7
13,23:7
13,24:5
13,26:5
13,27:7
17,5:5
17,14:5
17,15:5
17,16:5
18,3:5
18,5:12
18,6:5
18,7:7
18,10:5
18,12:7
18,14:12
18,15:12
18,16:12
18,17:7
18,23:7
18,24:5
18,26:5
18,27:7
19,1:14
19,3:20
19,4:14
19,5:27
19,6:20
19,7:22
19,8:14
19,10:20
19,11:15
19,12:22
19,13:15
19,14:27
19,15:27
19,16:27
19,17:22
19,18:15
19,21:9
19,22:9
19,23:22
19,24:20
19,25:9
19,26:20
19,27:22
20,1:3
20,3:9
20,4:3
20,5:16
20,6:9
20,7:11
20,8:3
20,10:9
20,11:4
20,12:11
20,13:4
20,14:16
20,15:16
20,16:16
20,17:11
20,18:4
20,23:11
20,24:9
20,26:9
20,27:11
21,1:5
21,3:11
21,4:5
21,5:18
21,6:11
21,7:13
21,8:5
21,10:11
21,11:6
21,12:13
21,13:6
21,14:18
21,15:18
21,16:18
21,17:13
21,18:6
21,20:2
21,23:13
21,24:11
21,26:11
21,27:13
22,1:5
22,3:11
22,4:5
22,5:18
22,6:11
22,7:13
22,8:5
22,10:11
22,11:6
22,12:13
22,13:6
22,14:18
22,15:18
22,16:18
22,17:13
22,18:6
22,20:2
22,23:13
22,24:11
22,26:11
22,27:13
23,5:5
23,14:5
23,15:5
23,16:5
24,5:7
24,7:2
24,12:2
24,14:7
24,15:7
24,16:7
24,17:2
24,23:2
24,27:2
25,1:5
25,3:11
25,4:5
25,5:18
25,6:11
25,7:13
25,8:5
25,10:11
25,11:6
25,12:13
25,13:6
25,14:18
25,15:18
25,16:18
25,17:13
25,18:6
25,20:2
25,23:13
25,24:11
25,26:11
25,27:13
26,5:7
26,7:2
26,12:2
26,14:7
26,15:7
26,16:7
26,17:2
26,23:2
27,5:5
27,14:5
27,15:5
27,16:5

<end>

<optimal SALBP-1 value>
8


<rand seed>
467321153

<Lower Bounds>
Lm1=8
Lms1=8
Lm2=5
Lm3=7
Lm4=8
Best=8

<Optimal Stations (Iterations: 10)>
10
